min: 22.2 * x12 + 36.8 * x13 + 15.9 * x14 + 70.7 * x15 + 62.3 * x16 + 41.8 * x17 + 23.4 * x18 + 22.2 * x21 + 80.0 * x23 + 76.6 * x24 + 50.0 * x25 + 100.0 * x26 + 95.5 * x27 + 39.9 * x28 + 36.8 * x31 + 80.0 * x32 + 51.2 * x34 + 47.7 * x35 + 78.5 * x36 + 23.2 * x37 + 34.6 * x38 + 15.9 * x41 + 76.6 * x42 + 51.2 * x43 + 17.8 * x45 + 27.9 * x46 + 92.7 * x47 + 94.8 * x48 + 70.7 * x51 + 50.0 * x52 + 47.7 * x53 + 17.8 * x54 + 77.0 * x56 + 12.0 * x57 + 11.9 * x58 + 62.3 * x61 + 100.0 * x62 + 78.5 * x63 + 27.9 * x64 + 77.0 * x65 + 48.2 * x67 + 24.8 * x68 + 41.8 * x71 + 95.5 * x72 + 23.2 * x73 + 92.7 * x74 + 12.0 * x75 + 48.2 * x76 + 39.3 * x78 + 23.4 * x81 + 39.9 * x82 + 34.6 * x83 + 94.8 * x84 + 11.9 * x85 + 24.8 * x86 + 39.3 * x87 + Te1 + Te2 + Te3 + Te4 + Te5 + Te6 + Te7 + Te8 + 10.5 + 9.0 + 20.5 + 4.5 + 2.0 + 4.4 + 7.8 + 10.0;

x12 + x13 + x14 + x15 + x16 + x17 + x18 = 1;
x21 + x23 + x24 + x25 + x26 + x27 + x28 = 1;
x31 + x32 + x34 + x35 + x36 + x37 + x38 = 1;
x41 + x42 + x43 + x45 + x46 + x47 + x48 = 1;
x51 + x52 + x53 + x54 + x56 + x57 + x58 = 1;
x61 + x62 + x63 + x64 + x65 + x67 + x68 = 1;
x71 + x72 + x73 + x74 + x75 + x76 + x78 = 1;
x81 + x82 + x83 + x84 + x85 + x86 + x87 = 1;
x21 + x31 + x41 + x51 + x61 + x71 + x81 = 1;
x12 + x32 + x42 + x52 + x62 + x72 + x82 = 1;
x13 + x23 + x43 + x53 + x63 + x73 + x83 = 1;
x14 + x24 + x34 + x54 + x64 + x74 + x84 = 1;
x15 + x25 + x35 + x45 + x65 + x75 + x85 = 1;
x16 + x26 + x36 + x46 + x56 + x76 + x86 = 1;
x17 + x27 + x37 + x47 + x57 + x67 + x87 = 1;
x18 + x28 + x38 + x48 + x58 + x68 + x78 = 1;
x12 + x21 <= 1;
x13 + x31 <= 1;
x14 + x41 <= 1;
x15 + x51 <= 1;
x16 + x61 <= 1;
x17 + x71 <= 1;
x18 + x81 <= 1;
x23 + x32 <= 1;
x24 + x42 <= 1;
x25 + x52 <= 1;
x26 + x62 <= 1;
x27 + x72 <= 1;
x28 + x82 <= 1;
x34 + x43 <= 1;
x35 + x53 <= 1;
x36 + x63 <= 1;
x37 + x73 <= 1;
x38 + x83 <= 1;
x45 + x54 <= 1;
x46 + x64 <= 1;
x47 + x74 <= 1;
x48 + x84 <= 1;
x56 + x65 <= 1;
x57 + x75 <= 1;
x58 + x85 <= 1;
x67 + x76 <= 1;
x68 + x86 <= 1;
x78 + x87 <= 1;
b2 >= b1 + 22.2 + Te1 + 10.5 - 10000.0 + 10000.0 * x12;
b3 >= b1 + 36.8 + Te1 + 10.5 - 10000.0 + 10000.0 * x13;
b4 >= b1 + 15.9 + Te1 + 10.5 - 10000.0 + 10000.0 * x14;
b5 >= b1 + 70.7 + Te1 + 10.5 - 10000.0 + 10000.0 * x15;
b6 >= b1 + 62.3 + Te1 + 10.5 - 10000.0 + 10000.0 * x16;
b7 >= b1 + 41.8 + Te1 + 10.5 - 10000.0 + 10000.0 * x17;
b8 >= b1 + 23.4 + Te1 + 10.5 - 10000.0 + 10000.0 * x18;
b3 >= b2 + 80.0 + Te2 + 9.0 - 10000.0 + 10000.0 * x23;
b4 >= b2 + 76.6 + Te2 + 9.0 - 10000.0 + 10000.0 * x24;
b5 >= b2 + 50.0 + Te2 + 9.0 - 10000.0 + 10000.0 * x25;
b6 >= b2 + 100.0 + Te2 + 9.0 - 10000.0 + 10000.0 * x26;
b7 >= b2 + 95.5 + Te2 + 9.0 - 10000.0 + 10000.0 * x27;
b8 >= b2 + 39.9 + Te2 + 9.0 - 10000.0 + 10000.0 * x28;
b2 >= b3 + 80.0 + Te3 + 20.5 - 10000.0 + 10000.0 * x32;
b4 >= b3 + 51.2 + Te3 + 20.5 - 10000.0 + 10000.0 * x34;
b5 >= b3 + 47.7 + Te3 + 20.5 - 10000.0 + 10000.0 * x35;
b6 >= b3 + 78.5 + Te3 + 20.5 - 10000.0 + 10000.0 * x36;
b7 >= b3 + 23.2 + Te3 + 20.5 - 10000.0 + 10000.0 * x37;
b8 >= b3 + 34.6 + Te3 + 20.5 - 10000.0 + 10000.0 * x38;
b2 >= b4 + 76.6 + Te4 + 4.5 - 10000.0 + 10000.0 * x42;
b3 >= b4 + 51.2 + Te4 + 4.5 - 10000.0 + 10000.0 * x43;
b5 >= b4 + 17.8 + Te4 + 4.5 - 10000.0 + 10000.0 * x45;
b6 >= b4 + 27.9 + Te4 + 4.5 - 10000.0 + 10000.0 * x46;
b7 >= b4 + 92.7 + Te4 + 4.5 - 10000.0 + 10000.0 * x47;
b8 >= b4 + 94.8 + Te4 + 4.5 - 10000.0 + 10000.0 * x48;
b2 >= b5 + 50.0 + Te5 + 2.0 - 10000.0 + 10000.0 * x52;
b3 >= b5 + 47.7 + Te5 + 2.0 - 10000.0 + 10000.0 * x53;
b4 >= b5 + 17.8 + Te5 + 2.0 - 10000.0 + 10000.0 * x54;
b6 >= b5 + 77.0 + Te5 + 2.0 - 10000.0 + 10000.0 * x56;
b7 >= b5 + 12.0 + Te5 + 2.0 - 10000.0 + 10000.0 * x57;
b8 >= b5 + 11.9 + Te5 + 2.0 - 10000.0 + 10000.0 * x58;
b2 >= b6 + 100.0 + Te6 + 4.4 - 10000.0 + 10000.0 * x62;
b3 >= b6 + 78.5 + Te6 + 4.4 - 10000.0 + 10000.0 * x63;
b4 >= b6 + 27.9 + Te6 + 4.4 - 10000.0 + 10000.0 * x64;
b5 >= b6 + 77.0 + Te6 + 4.4 - 10000.0 + 10000.0 * x65;
b7 >= b6 + 48.2 + Te6 + 4.4 - 10000.0 + 10000.0 * x67;
b8 >= b6 + 24.8 + Te6 + 4.4 - 10000.0 + 10000.0 * x68;
b2 >= b7 + 95.5 + Te7 + 7.8 - 10000.0 + 10000.0 * x72;
b3 >= b7 + 23.2 + Te7 + 7.8 - 10000.0 + 10000.0 * x73;
b4 >= b7 + 92.7 + Te7 + 7.8 - 10000.0 + 10000.0 * x74;
b5 >= b7 + 12.0 + Te7 + 7.8 - 10000.0 + 10000.0 * x75;
b6 >= b7 + 48.2 + Te7 + 7.8 - 10000.0 + 10000.0 * x76;
b8 >= b7 + 39.3 + Te7 + 7.8 - 10000.0 + 10000.0 * x78;
b2 >= b8 + 39.9 + Te8 + 10.0 - 10000.0 + 10000.0 * x82;
b3 >= b8 + 34.6 + Te8 + 10.0 - 10000.0 + 10000.0 * x83;
b4 >= b8 + 94.8 + Te8 + 10.0 - 10000.0 + 10000.0 * x84;
b5 >= b8 + 11.9 + Te8 + 10.0 - 10000.0 + 10000.0 * x85;
b6 >= b8 + 24.8 + Te8 + 10.0 - 10000.0 + 10000.0 * x86;
b7 >= b8 + 39.3 + Te8 + 10.0 - 10000.0 + 10000.0 * x87;
b2 - 10000.0 + 10000.0 * x12 <= b1 + 22.2 + Te1 + 10.5;
b3 - 10000.0 + 10000.0 * x13 <= b1 + 36.8 + Te1 + 10.5;
b4 - 10000.0 + 10000.0 * x14 <= b1 + 15.9 + Te1 + 10.5;
b5 - 10000.0 + 10000.0 * x15 <= b1 + 70.7 + Te1 + 10.5;
b6 - 10000.0 + 10000.0 * x16 <= b1 + 62.3 + Te1 + 10.5;
b7 - 10000.0 + 10000.0 * x17 <= b1 + 41.8 + Te1 + 10.5;
b8 - 10000.0 + 10000.0 * x18 <= b1 + 23.4 + Te1 + 10.5;
b3 - 10000.0 + 10000.0 * x23 <= b2 + 80.0 + Te2 + 9.0;
b4 - 10000.0 + 10000.0 * x24 <= b2 + 76.6 + Te2 + 9.0;
b5 - 10000.0 + 10000.0 * x25 <= b2 + 50.0 + Te2 + 9.0;
b6 - 10000.0 + 10000.0 * x26 <= b2 + 100.0 + Te2 + 9.0;
b7 - 10000.0 + 10000.0 * x27 <= b2 + 95.5 + Te2 + 9.0;
b8 - 10000.0 + 10000.0 * x28 <= b2 + 39.9 + Te2 + 9.0;
b2 - 10000.0 + 10000.0 * x32 <= b3 + 80.0 + Te3 + 20.5;
b4 - 10000.0 + 10000.0 * x34 <= b3 + 51.2 + Te3 + 20.5;
b5 - 10000.0 + 10000.0 * x35 <= b3 + 47.7 + Te3 + 20.5;
b6 - 10000.0 + 10000.0 * x36 <= b3 + 78.5 + Te3 + 20.5;
b7 - 10000.0 + 10000.0 * x37 <= b3 + 23.2 + Te3 + 20.5;
b8 - 10000.0 + 10000.0 * x38 <= b3 + 34.6 + Te3 + 20.5;
b2 - 10000.0 + 10000.0 * x42 <= b4 + 76.6 + Te4 + 4.5;
b3 - 10000.0 + 10000.0 * x43 <= b4 + 51.2 + Te4 + 4.5;
b5 - 10000.0 + 10000.0 * x45 <= b4 + 17.8 + Te4 + 4.5;
b6 - 10000.0 + 10000.0 * x46 <= b4 + 27.9 + Te4 + 4.5;
b7 - 10000.0 + 10000.0 * x47 <= b4 + 92.7 + Te4 + 4.5;
b8 - 10000.0 + 10000.0 * x48 <= b4 + 94.8 + Te4 + 4.5;
b2 - 10000.0 + 10000.0 * x52 <= b5 + 50.0 + Te5 + 2.0;
b3 - 10000.0 + 10000.0 * x53 <= b5 + 47.7 + Te5 + 2.0;
b4 - 10000.0 + 10000.0 * x54 <= b5 + 17.8 + Te5 + 2.0;
b6 - 10000.0 + 10000.0 * x56 <= b5 + 77.0 + Te5 + 2.0;
b7 - 10000.0 + 10000.0 * x57 <= b5 + 12.0 + Te5 + 2.0;
b8 - 10000.0 + 10000.0 * x58 <= b5 + 11.9 + Te5 + 2.0;
b2 - 10000.0 + 10000.0 * x62 <= b6 + 100.0 + Te6 + 4.4;
b3 - 10000.0 + 10000.0 * x63 <= b6 + 78.5 + Te6 + 4.4;
b4 - 10000.0 + 10000.0 * x64 <= b6 + 27.9 + Te6 + 4.4;
b5 - 10000.0 + 10000.0 * x65 <= b6 + 77.0 + Te6 + 4.4;
b7 - 10000.0 + 10000.0 * x67 <= b6 + 48.2 + Te6 + 4.4;
b8 - 10000.0 + 10000.0 * x68 <= b6 + 24.8 + Te6 + 4.4;
b2 - 10000.0 + 10000.0 * x72 <= b7 + 95.5 + Te7 + 7.8;
b3 - 10000.0 + 10000.0 * x73 <= b7 + 23.2 + Te7 + 7.8;
b4 - 10000.0 + 10000.0 * x74 <= b7 + 92.7 + Te7 + 7.8;
b5 - 10000.0 + 10000.0 * x75 <= b7 + 12.0 + Te7 + 7.8;
b6 - 10000.0 + 10000.0 * x76 <= b7 + 48.2 + Te7 + 7.8;
b8 - 10000.0 + 10000.0 * x78 <= b7 + 39.3 + Te7 + 7.8;
b2 - 10000.0 + 10000.0 * x82 <= b8 + 39.9 + Te8 + 10.0;
b3 - 10000.0 + 10000.0 * x83 <= b8 + 34.6 + Te8 + 10.0;
b4 - 10000.0 + 10000.0 * x84 <= b8 + 94.8 + Te8 + 10.0;
b5 - 10000.0 + 10000.0 * x85 <= b8 + 11.9 + Te8 + 10.0;
b6 - 10000.0 + 10000.0 * x86 <= b8 + 24.8 + Te8 + 10.0;
b7 - 10000.0 + 10000.0 * x87 <= b8 + 39.3 + Te8 + 10.0;
0.0 <= b1 + Te1;
460.0 <= b2 + Te2;
350.0 <= b3 + Te3;
120.0 <= b4 + Te4;
250.0 <= b5 + Te5;
80.0 <= b6 + Te6;
200.0 <= b7 + Te7;
150.0 <= b8 + Te8;
b1 <= 0.0;
b2 <= 500.0;
b3 <= 400.0;
b4 <= 150.5;
b5 <= 350.0;
b6 <= 95.9;
b7 <= 300.0;
b8 <= 240.0;
Te1 >= 0.0 - b2 - 22.2 - Te2 - 9.0 - 10000.0 + 10000.0 * x21;
Te1 >= 0.0 - b3 - 36.8 - Te3 - 20.5 - 10000.0 + 10000.0 * x31;
Te1 >= 0.0 - b4 - 15.9 - Te4 - 4.5 - 10000.0 + 10000.0 * x41;
Te1 >= 0.0 - b5 - 70.7 - Te5 - 2.0 - 10000.0 + 10000.0 * x51;
Te1 >= 0.0 - b6 - 62.3 - Te6 - 4.4 - 10000.0 + 10000.0 * x61;
Te1 >= 0.0 - b7 - 41.8 - Te7 - 7.8 - 10000.0 + 10000.0 * x71;
Te1 >= 0.0 - b8 - 23.4 - Te8 - 10.0 - 10000.0 + 10000.0 * x81;
Te2 >= 460.0 - b1 - 22.2 - Te1 - 10.5 - 10000.0 + 10000.0 * x12;
Te2 >= 460.0 - b3 - 80.0 - Te3 - 20.5 - 10000.0 + 10000.0 * x32;
Te2 >= 460.0 - b4 - 76.6 - Te4 - 4.5 - 10000.0 + 10000.0 * x42;
Te2 >= 460.0 - b5 - 50.0 - Te5 - 2.0 - 10000.0 + 10000.0 * x52;
Te2 >= 460.0 - b6 - 100.0 - Te6 - 4.4 - 10000.0 + 10000.0 * x62;
Te2 >= 460.0 - b7 - 95.5 - Te7 - 7.8 - 10000.0 + 10000.0 * x72;
Te2 >= 460.0 - b8 - 39.9 - Te8 - 10.0 - 10000.0 + 10000.0 * x82;
Te3 >= 350.0 - b1 - 36.8 - Te1 - 10.5 - 10000.0 + 10000.0 * x13;
Te3 >= 350.0 - b2 - 80.0 - Te2 - 9.0 - 10000.0 + 10000.0 * x23;
Te3 >= 350.0 - b4 - 51.2 - Te4 - 4.5 - 10000.0 + 10000.0 * x43;
Te3 >= 350.0 - b5 - 47.7 - Te5 - 2.0 - 10000.0 + 10000.0 * x53;
Te3 >= 350.0 - b6 - 78.5 - Te6 - 4.4 - 10000.0 + 10000.0 * x63;
Te3 >= 350.0 - b7 - 23.2 - Te7 - 7.8 - 10000.0 + 10000.0 * x73;
Te3 >= 350.0 - b8 - 34.6 - Te8 - 10.0 - 10000.0 + 10000.0 * x83;
Te4 >= 120.0 - b1 - 15.9 - Te1 - 10.5 - 10000.0 + 10000.0 * x14;
Te4 >= 120.0 - b2 - 76.6 - Te2 - 9.0 - 10000.0 + 10000.0 * x24;
Te4 >= 120.0 - b3 - 51.2 - Te3 - 20.5 - 10000.0 + 10000.0 * x34;
Te4 >= 120.0 - b5 - 17.8 - Te5 - 2.0 - 10000.0 + 10000.0 * x54;
Te4 >= 120.0 - b6 - 27.9 - Te6 - 4.4 - 10000.0 + 10000.0 * x64;
Te4 >= 120.0 - b7 - 92.7 - Te7 - 7.8 - 10000.0 + 10000.0 * x74;
Te4 >= 120.0 - b8 - 94.8 - Te8 - 10.0 - 10000.0 + 10000.0 * x84;
Te5 >= 250.0 - b1 - 70.7 - Te1 - 10.5 - 10000.0 + 10000.0 * x15;
Te5 >= 250.0 - b2 - 50.0 - Te2 - 9.0 - 10000.0 + 10000.0 * x25;
Te5 >= 250.0 - b3 - 47.7 - Te3 - 20.5 - 10000.0 + 10000.0 * x35;
Te5 >= 250.0 - b4 - 17.8 - Te4 - 4.5 - 10000.0 + 10000.0 * x45;
Te5 >= 250.0 - b6 - 77.0 - Te6 - 4.4 - 10000.0 + 10000.0 * x65;
Te5 >= 250.0 - b7 - 12.0 - Te7 - 7.8 - 10000.0 + 10000.0 * x75;
Te5 >= 250.0 - b8 - 11.9 - Te8 - 10.0 - 10000.0 + 10000.0 * x85;
Te6 >= 80.0 - b1 - 62.3 - Te1 - 10.5 - 10000.0 + 10000.0 * x16;
Te6 >= 80.0 - b2 - 100.0 - Te2 - 9.0 - 10000.0 + 10000.0 * x26;
Te6 >= 80.0 - b3 - 78.5 - Te3 - 20.5 - 10000.0 + 10000.0 * x36;
Te6 >= 80.0 - b4 - 27.9 - Te4 - 4.5 - 10000.0 + 10000.0 * x46;
Te6 >= 80.0 - b5 - 77.0 - Te5 - 2.0 - 10000.0 + 10000.0 * x56;
Te6 >= 80.0 - b7 - 48.2 - Te7 - 7.8 - 10000.0 + 10000.0 * x76;
Te6 >= 80.0 - b8 - 24.8 - Te8 - 10.0 - 10000.0 + 10000.0 * x86;
Te7 >= 200.0 - b1 - 41.8 - Te1 - 10.5 - 10000.0 + 10000.0 * x17;
Te7 >= 200.0 - b2 - 95.5 - Te2 - 9.0 - 10000.0 + 10000.0 * x27;
Te7 >= 200.0 - b3 - 23.2 - Te3 - 20.5 - 10000.0 + 10000.0 * x37;
Te7 >= 200.0 - b4 - 92.7 - Te4 - 4.5 - 10000.0 + 10000.0 * x47;
Te7 >= 200.0 - b5 - 12.0 - Te5 - 2.0 - 10000.0 + 10000.0 * x57;
Te7 >= 200.0 - b6 - 48.2 - Te6 - 4.4 - 10000.0 + 10000.0 * x67;
Te7 >= 200.0 - b8 - 39.3 - Te8 - 10.0 - 10000.0 + 10000.0 * x87;
Te8 >= 150.0 - b1 - 23.4 - Te1 - 10.5 - 10000.0 + 10000.0 * x18;
Te8 >= 150.0 - b2 - 39.9 - Te2 - 9.0 - 10000.0 + 10000.0 * x28;
Te8 >= 150.0 - b3 - 34.6 - Te3 - 20.5 - 10000.0 + 10000.0 * x38;
Te8 >= 150.0 - b4 - 94.8 - Te4 - 4.5 - 10000.0 + 10000.0 * x48;
Te8 >= 150.0 - b5 - 11.9 - Te5 - 2.0 - 10000.0 + 10000.0 * x58;
Te8 >= 150.0 - b6 - 24.8 - Te6 - 4.4 - 10000.0 + 10000.0 * x68;
Te8 >= 150.0 - b7 - 39.3 - Te7 - 7.8 - 10000.0 + 10000.0 * x78;

bin x12, x13, x14, x15, x16, x17, x18, x21, x23, x24, x25, x26, x27, x28, x31, x32, x34, x35, x36, x37, x38, x41, x42, x43, x45, x46, x47, x48, x51, x52, x53, x54, x56, x57, x58, x61, x62, x63, x64, x65, x67, x68, x71, x72, x73, x74, x75, x76, x78, x81, x82, x83, x84, x85, x86, x87;